knapPI_6_1000_1000_3
n 1000
c 2575
z 2575
time 0.3
1,71,71,1
2,395,395,1
3,384,384,1
4,855,855,1
5,663,663,1
6,322,322,1
7,212,212,1
8,248,248,1
9,386,386,1
10,949,949,1
11,158,158,1
12,734,734,1
13,640,640,1
14,647,647,1
15,278,278,1
16,891,891,1
17,936,936,1
18,582,582,1
19,99,99,1
20,528,528,1
21,642,642,1
22,584,584,1
23,622,622,1
24,233,233,1
25,933,933,1
26,980,980,1
27,361,361,1
28,760,760,1
29,242,242,1
30,894,894,1
31,890,890,1
32,14,14,1
33,528,528,1
34,360,360,1
35,879,879,1
36,753,753,1
37,128,128,1
38,843,843,1
39,916,916,1
40,607,607,1
41,411,411,1
42,357,357,1
43,388,388,1
44,818,818,1
45,140,140,1
46,937,937,1
47,47,47,1
48,642,642,1
49,124,124,1
50,748,748,1
51,466,466,1
52,340,340,1
53,629,629,1
54,983,983,1
55,317,317,1
56,385,385,1
57,836,836,1
58,113,113,1
59,453,453,1
60,644,644,1
61,846,846,1
62,987,987,1
63,51,51,1
64,918,918,1
65,659,659,1
66,230,230,1
67,50,50,1
68,911,911,1
69,310,310,1
70,777,777,1
71,127,127,1
72,140,140,1
73,750,750,1
74,724,724,1
75,948,948,1
76,153,153,1
77,330,330,1
78,613,613,1
79,49,49,1
80,33,33,1
81,770,770,1
82,748,748,1
83,107,107,1
84,98,98,1
85,763,763,1
86,493,493,1
87,408,408,1
88,392,392,1
89,200,200,1
90,183,183,1
91,249,249,1
92,609,609,1
93,379,379,1
94,674,674,1
95,758,758,1
96,248,248,1
97,728,728,1
98,719,719,1
99,945,945,1
100,57,57,1
101,772,772,1
102,157,157,1
103,719,719,1
104,578,578,1
105,679,679,1
106,185,185,1
107,105,105,1
108,739,739,1
109,989,989,1
110,493,493,1
111,109,109,1
112,351,351,1
113,923,923,1
114,618,618,1
115,389,389,1
116,102,102,1
117,68,68,1
118,454,454,1
119,186,186,1
120,658,658,1
121,714,714,1
122,417,417,1
123,22,22,1
124,12,12,1
125,542,542,1
126,261,261,1
127,243,243,1
128,101,101,1
129,899,899,1
130,100,100,1
131,678,678,1
132,725,725,1
133,377,377,1
134,256,256,1
135,316,316,1
136,96,96,1
137,697,697,1
138,413,413,1
139,935,935,1
140,728,728,1
141,895,895,1
142,325,325,1
143,834,834,1
144,609,609,1
145,215,215,1
146,277,277,1
147,945,945,1
148,86,86,1
149,233,233,1
150,799,799,1
151,44,44,1
152,766,766,1
153,23,23,1
154,994,994,1
155,109,109,1
156,393,393,1
157,750,750,1
158,259,259,1
159,562,562,1
160,111,111,1
161,71,71,1
162,500,500,1
163,177,177,1
164,836,836,1
165,929,929,1
166,120,120,1
167,607,607,1
168,721,721,1
169,162,162,1
170,945,945,1
171,405,405,1
172,532,532,1
173,877,877,1
174,475,475,1
175,824,824,1
176,713,713,1
177,507,507,1
178,348,348,1
179,149,149,1
180,759,759,1
181,114,114,1
182,156,156,1
183,447,447,1
184,28,28,1
185,842,842,1
186,513,513,1
187,687,687,1
188,920,920,1
189,676,676,1
190,519,519,1
191,619,619,1
192,38,38,1
193,237,237,1
194,464,464,1
195,706,706,1
196,655,655,1
197,361,361,1
198,87,87,1
199,303,303,1
200,82,82,1
201,639,639,1
202,58,58,1
203,332,332,1
204,119,119,1
205,678,678,1
206,481,481,1
207,947,947,1
208,326,326,1
209,952,952,1
210,464,464,1
211,173,173,1
212,152,152,1
213,276,276,1
214,187,187,1
215,565,565,1
216,487,487,1
217,500,500,1
218,773,773,1
219,815,815,1
220,632,632,1
221,441,441,1
222,709,709,1
223,384,384,1
224,624,624,1
225,524,524,1
226,695,695,1
227,174,174,1
228,55,55,1
229,286,286,1
230,102,102,1
231,359,359,1
232,653,653,1
233,121,121,1
234,591,591,1
235,611,611,1
236,135,135,1
237,211,211,1
238,80,80,1
239,625,625,1
240,447,447,1
241,121,121,1
242,582,582,1
243,748,748,1
244,172,172,1
245,227,227,1
246,891,891,1
247,54,54,1
248,195,195,1
249,181,181,1
250,961,961,1
251,196,196,1
252,546,546,1
253,599,599,1
254,251,251,1
255,923,923,1
256,584,584,1
257,533,533,1
258,139,139,1
259,530,530,1
260,355,355,1
261,636,636,1
262,728,728,1
263,509,509,1
264,607,607,1
265,178,178,1
266,622,622,1
267,429,429,1
268,607,607,1
269,49,49,1
270,617,617,1
271,177,177,1
272,213,213,1
273,969,969,1
274,693,693,1
275,875,875,1
276,943,943,1
277,241,241,1
278,485,485,1
279,992,992,1
280,237,237,1
281,253,253,1
282,344,344,1
283,242,242,1
284,433,433,1
285,494,494,1
286,359,359,1
287,455,455,1
288,143,143,1
289,794,794,1
290,220,220,1
291,184,184,1
292,359,359,1
293,871,871,1
294,572,572,1
295,704,704,1
296,521,521,1
297,348,348,1
298,876,876,1
299,537,537,1
300,521,521,1
301,97,97,1
302,182,182,1
303,902,902,1
304,289,289,1
305,856,856,1
306,541,541,1
307,397,397,1
308,770,770,1
309,746,746,1
310,514,514,1
311,616,616,1
312,785,785,1
313,793,793,1
314,844,844,1
315,304,304,1
316,95,95,1
317,237,237,1
318,553,553,1
319,634,634,1
320,54,54,1
321,1000,1000,1
322,322,322,1
323,766,766,1
324,438,438,1
325,612,612,1
326,614,614,1
327,26,26,1
328,391,391,1
329,191,191,1
330,764,764,1
331,715,715,1
332,76,76,1
333,515,515,1
334,897,897,1
335,857,857,1
336,37,37,1
337,428,428,1
338,325,325,1
339,117,117,1
340,725,725,1
341,250,250,1
342,414,414,1
343,140,140,1
344,580,580,1
345,723,723,1
346,528,528,1
347,319,319,1
348,536,536,1
349,230,230,1
350,198,198,1
351,179,179,1
352,749,749,1
353,380,380,1
354,662,662,1
355,898,898,1
356,22,22,1
357,343,343,1
358,215,215,1
359,207,207,1
360,102,102,1
361,974,974,1
362,844,844,1
363,513,513,1
364,781,781,1
365,753,753,1
366,887,887,1
367,379,379,1
368,582,582,1
369,184,184,1
370,416,416,1
371,603,603,1
372,172,172,1
373,257,257,1
374,755,755,1
375,344,344,1
376,765,765,1
377,728,728,1
378,511,511,1
379,434,434,1
380,641,641,1
381,89,89,1
382,499,499,1
383,991,991,1
384,668,668,1
385,320,320,1
386,704,704,1
387,264,264,1
388,145,145,1
389,588,588,1
390,779,779,1
391,945,945,1
392,612,612,1
393,395,395,1
394,697,697,1
395,992,992,1
396,705,705,1
397,207,207,1
398,341,341,1
399,251,251,1
400,343,343,1
401,871,871,1
402,852,852,1
403,133,133,1
404,64,64,1
405,704,704,1
406,791,791,1
407,81,81,1
408,441,441,1
409,84,84,1
410,218,218,1
411,701,701,1
412,651,651,1
413,506,506,1
414,749,749,1
415,173,173,1
416,799,799,1
417,236,236,1
418,271,271,1
419,283,283,1
420,978,978,1
421,945,945,1
422,235,235,1
423,568,568,1
424,374,374,1
425,536,536,1
426,658,658,1
427,207,207,1
428,916,916,1
429,396,396,1
430,419,419,1
431,609,609,1
432,997,997,1
433,862,862,1
434,338,338,1
435,744,744,1
436,271,271,1
437,301,301,1
438,50,50,1
439,911,911,1
440,914,914,1
441,249,249,1
442,112,112,1
443,716,716,1
444,795,795,1
445,687,687,1
446,776,776,1
447,959,959,1
448,136,136,1
449,863,863,1
450,170,170,1
451,308,308,1
452,180,180,1
453,419,419,1
454,683,683,1
455,167,167,1
456,441,441,1
457,698,698,1
458,28,28,1
459,148,148,1
460,744,744,1
461,730,730,1
462,560,560,1
463,924,924,1
464,961,961,1
465,304,304,1
466,175,175,1
467,674,674,1
468,184,184,1
469,711,711,1
470,501,501,1
471,520,520,1
472,826,826,1
473,459,459,1
474,380,380,1
475,940,940,1
476,444,444,1
477,506,506,1
478,277,277,1
479,227,227,1
480,341,341,1
481,212,212,1
482,180,180,1
483,722,722,1
484,812,812,1
485,935,935,1
486,66,66,1
487,258,258,1
488,339,339,1
489,82,82,1
490,697,697,1
491,307,307,1
492,61,61,1
493,668,668,1
494,535,535,1
495,771,771,1
496,284,284,1
497,875,875,1
498,20,20,1
499,865,865,1
500,157,157,1
501,68,68,1
502,642,642,1
503,48,48,1
504,486,486,1
505,136,136,1
506,718,718,1
507,786,786,1
508,397,397,1
509,412,412,1
510,443,443,1
511,679,679,1
512,271,271,1
513,220,220,1
514,287,287,1
515,879,879,1
516,99,99,1
517,162,162,1
518,413,413,1
519,577,577,1
520,643,643,1
521,869,869,1
522,674,674,1
523,920,920,1
524,839,839,1
525,273,273,1
526,985,985,1
527,368,368,1
528,869,869,1
529,932,932,1
530,216,216,1
531,128,128,1
532,368,368,1
533,993,993,1
534,274,274,1
535,760,760,1
536,527,527,1
537,142,142,1
538,972,972,1
539,274,274,1
540,496,496,1
541,442,442,1
542,853,853,1
543,107,107,1
544,523,523,1
545,272,272,1
546,104,104,1
547,100,100,1
548,827,827,1
549,816,816,1
550,82,82,1
551,321,321,1
552,277,277,1
553,604,604,1
554,960,960,1
555,877,877,1
556,97,97,1
557,794,794,1
558,3,3,1
559,353,353,1
560,193,193,1
561,736,736,1
562,217,217,1
563,59,59,1
564,419,419,1
565,961,961,1
566,380,380,1
567,303,303,1
568,313,313,1
569,888,888,1
570,758,758,1
571,75,75,1
572,810,810,1
573,352,352,1
574,579,579,1
575,849,849,1
576,247,247,1
577,692,692,1
578,43,43,1
579,475,475,1
580,6,6,1
581,39,39,1
582,957,957,1
583,153,153,1
584,125,125,1
585,72,72,1
586,37,37,1
587,531,531,1
588,414,414,1
589,987,987,1
590,432,432,1
591,816,816,1
592,742,742,1
593,495,495,1
594,526,526,1
595,812,812,1
596,729,729,1
597,689,689,1
598,318,318,1
599,352,352,1
600,661,661,1
601,629,629,1
602,796,796,1
603,994,994,1
604,228,228,1
605,692,692,1
606,645,645,1
607,635,635,1
608,607,607,1
609,880,880,1
610,926,926,1
611,67,67,1
612,953,953,1
613,310,310,1
614,666,666,1
615,138,138,1
616,670,670,1
617,617,617,1
618,918,918,1
619,782,782,1
620,750,750,1
621,948,948,1
622,639,639,1
623,761,761,1
624,115,115,1
625,189,189,1
626,732,732,1
627,512,512,1
628,709,709,1
629,817,817,1
630,92,92,1
631,909,909,1
632,640,640,1
633,410,410,1
634,187,187,1
635,336,336,1
636,815,815,1
637,375,375,1
638,386,386,1
639,813,813,1
640,554,554,1
641,549,549,1
642,859,859,1
643,701,701,1
644,800,800,1
645,241,241,1
646,832,832,1
647,630,630,1
648,223,223,1
649,945,945,1
650,377,377,1
651,280,280,1
652,727,727,1
653,982,982,1
654,405,405,1
655,513,513,1
656,824,824,1
657,515,515,1
658,129,129,1
659,882,882,1
660,74,74,1
661,554,554,1
662,341,341,1
663,141,141,1
664,264,264,1
665,99,99,1
666,887,887,1
667,172,172,1
668,760,760,1
669,991,991,1
670,902,902,1
671,314,314,1
672,874,874,1
673,541,541,1
674,176,176,1
675,274,274,1
676,61,61,1
677,649,649,1
678,229,229,1
679,58,58,1
680,151,151,1
681,719,719,1
682,246,246,1
683,590,590,1
684,398,398,1
685,263,263,1
686,847,847,1
687,14,14,1
688,81,81,1
689,845,845,1
690,54,54,1
691,945,945,1
692,290,290,1
693,687,687,1
694,823,823,1
695,540,540,1
696,453,453,1
697,475,475,1
698,954,954,1
699,300,300,1
700,203,203,1
701,605,605,1
702,209,209,1
703,336,336,1
704,670,670,1
705,558,558,1
706,131,131,1
707,666,666,1
708,93,93,1
709,239,239,1
710,439,439,1
711,421,421,1
712,865,865,1
713,637,637,1
714,102,102,1
715,523,523,1
716,795,795,1
717,53,53,1
718,698,698,1
719,385,385,1
720,731,731,1
721,475,475,1
722,500,500,1
723,943,943,1
724,966,966,1
725,564,564,1
726,614,614,1
727,874,874,1
728,309,309,1
729,817,817,1
730,473,473,1
731,377,377,1
732,402,402,1
733,914,914,1
734,742,742,1
735,918,918,1
736,851,851,1
737,663,663,1
738,230,230,1
739,852,852,1
740,391,391,1
741,331,331,1
742,48,48,1
743,196,196,1
744,316,316,1
745,597,597,1
746,127,127,1
747,233,233,1
748,362,362,1
749,942,942,1
750,694,694,1
751,331,331,1
752,295,295,1
753,661,661,1
754,590,590,1
755,288,288,1
756,382,382,1
757,377,377,1
758,759,759,1
759,569,569,1
760,805,805,1
761,379,379,1
762,825,825,1
763,753,753,1
764,501,501,1
765,8,8,1
766,386,386,1
767,533,533,1
768,912,912,1
769,723,723,1
770,823,823,1
771,847,847,1
772,103,103,1
773,803,803,1
774,449,449,1
775,625,625,1
776,973,973,1
777,282,282,1
778,172,172,1
779,869,869,1
780,700,700,1
781,135,135,1
782,49,49,1
783,603,603,1
784,789,789,1
785,790,790,1
786,108,108,1
787,865,865,1
788,707,707,1
789,883,883,1
790,464,464,1
791,126,126,1
792,490,490,1
793,724,724,1
794,347,347,1
795,323,323,1
796,554,554,1
797,896,896,1
798,627,627,1
799,732,732,1
800,782,782,1
801,314,314,1
802,553,553,1
803,961,961,1
804,293,293,1
805,288,288,1
806,649,649,1
807,69,69,1
808,930,930,1
809,474,474,1
810,798,798,1
811,613,613,1
812,252,252,1
813,503,503,1
814,985,985,1
815,117,117,1
816,229,229,1
817,512,512,1
818,899,899,1
819,891,891,1
820,675,675,1
821,740,740,1
822,35,35,1
823,383,383,1
824,789,789,1
825,829,829,1
826,556,556,1
827,966,966,1
828,564,564,1
829,225,225,1
830,922,922,1
831,810,810,1
832,269,269,1
833,81,81,1
834,368,368,1
835,314,314,1
836,862,862,1
837,620,620,1
838,681,681,1
839,410,410,1
840,240,240,1
841,495,495,1
842,235,235,1
843,262,262,1
844,656,656,1
845,83,83,1
846,545,545,1
847,302,302,1
848,12,12,1
849,272,272,1
850,105,105,1
851,854,854,1
852,677,677,1
853,429,429,1
854,885,885,1
855,182,182,1
856,11,11,1
857,307,307,1
858,21,21,1
859,49,49,1
860,713,713,1
861,768,768,1
862,209,209,1
863,237,237,1
864,122,122,1
865,624,624,1
866,166,166,1
867,551,551,1
868,96,96,1
869,339,339,1
870,61,61,1
871,363,363,1
872,186,186,1
873,377,377,1
874,922,922,1
875,864,864,1
876,589,589,1
877,911,911,1
878,685,685,1
879,475,475,1
880,112,112,1
881,21,21,1
882,738,738,1
883,88,88,1
884,678,678,1
885,294,294,1
886,842,842,1
887,154,154,1
888,748,748,1
889,770,770,1
890,438,438,1
891,647,647,1
892,284,284,1
893,62,62,1
894,104,104,1
895,828,828,1
896,788,788,1
897,722,722,1
898,294,294,1
899,533,533,1
900,422,422,1
901,73,73,1
902,573,573,1
903,69,69,1
904,325,325,1
905,582,582,1
906,949,949,1
907,236,236,1
908,882,882,1
909,141,141,1
910,997,997,1
911,625,625,1
912,4,4,1
913,922,922,1
914,977,977,1
915,232,232,1
916,438,438,1
917,872,872,1
918,991,991,1
919,779,779,1
920,395,395,1
921,103,103,1
922,560,560,1
923,27,27,1
924,941,941,1
925,623,623,1
926,937,937,1
927,917,917,1
928,724,724,1
929,275,275,1
930,843,843,1
931,385,385,1
932,509,509,1
933,848,848,1
934,182,182,1
935,410,410,1
936,972,972,1
937,390,390,1
938,268,268,1
939,962,962,1
940,621,621,1
941,580,580,1
942,31,31,1
943,557,557,1
944,210,210,1
945,416,416,1
946,816,816,1
947,496,496,1
948,870,870,1
949,905,905,1
950,583,583,1
951,23,23,1
952,249,249,1
953,5,5,1
954,440,440,1
955,975,975,1
956,665,665,1
957,872,872,1
958,748,748,1
959,252,252,1
960,703,703,1
961,770,770,1
962,853,853,1
963,220,220,1
964,842,842,1
965,873,873,1
966,444,444,1
967,862,862,1
968,213,213,1
969,649,649,1
970,903,903,1
971,288,288,1
972,321,321,1
973,881,881,1
974,133,133,1
975,355,355,1
976,228,228,1
977,541,541,1
978,250,250,1
979,813,813,1
980,487,487,1
981,652,652,1
982,551,551,1
983,388,388,1
984,229,229,1
985,862,862,1
986,312,312,1
987,11,11,1
988,762,762,1
989,894,894,1
990,227,227,1
991,412,412,1
992,459,459,1
993,688,688,1
994,550,550,1
995,679,679,1
996,313,313,1
997,380,380,1
998,98,98,1
999,883,883,1
1000,869,869,1
